WARNING: for repeatability, setting FPU to use double precision
============================[ Problem Statistics ]=============================
|                                                                             |
|  Number of variables:            50                                         |
|  Number of clauses:             218                                         |
|  Parse time:                   0.00 s                                       |
|                                                                             |
============================[ Search Statistics ]==============================
| Conflicts |          ORIGINAL         |          LEARNT          | Progress |
|           |    Vars  Clauses Literals |    Limit  Clauses Lit/Cl |          |
===============================================================================
===============================================================================
restarts              : 1
conflicts             : 19             (13828 /sec)
decisions             : 29             (0.00 % random) (21106 /sec)
propagations          : 290            (211063 /sec)
conflict literals     : 83             (11.70 % deleted)
Memory used           : 20.00 MB
CPU time              : 0.001374 s

SATISFIABLE
